
Gurobi 11.0.0 (linux64) logging started Thu Sep 19 18:14:23 2024

Set parameter LogFile to value "/lustre1/scratch/348/vsc34888/JointResearch/05.Models/06.Benchmarking/L.Cont_Investments_per_hour/IEEE118_mod1_ByStages_nc80/openStarNet_IEEE118_mod1_ByStages_nc80.log"
Set parameter Method to value 2
Set parameter MIPFocus to value 1
Set parameter Presolve to value 2
Set parameter RINS to value 100
Set parameter MIPGap to value 0.01
Set parameter Threads to value 36
Set parameter TimeLimit to value 259200
Set parameter IterationLimit to value 760000000
Gurobi Optimizer version 11.0.0 build v11.0.0rc2 (linux64 - "Rocky Linux 8.9 (Green Obsidian)")

CPU model: Intel(R) Xeon(R) Gold 6240 CPU @ 2.60GHz, instruction set [SSE2|AVX|AVX2|AVX512]
Thread count: 36 physical cores, 36 logical processors, using up to 36 threads

Optimize a model with 113683 rows, 83796 columns and 292328 nonzeros
Model fingerprint: 0x52c03dc6
Variable types: 83762 continuous, 34 integer (34 binary)
Coefficient statistics:
  Matrix range     [5e-04, 9e+03]
  Objective range  [1e+00, 1e+00]
  Bounds range     [1e-04, 3e+00]
  RHS range        [2e-04, 3e+00]
Presolve removed 77003 rows and 38760 columns
Presolve time: 0.42s
Presolved: 36680 rows, 45036 columns, 134307 nonzeros
Variable types: 45002 continuous, 34 integer (34 binary)
Root relaxation presolved: 36680 rows, 45036 columns, 134307 nonzeros

Root barrier log...

Ordering time: 0.02s

Barrier statistics:
 Dense cols : 34
 AA' NZ     : 1.668e+05
 Factor NZ  : 6.469e+05 (roughly 40 MB of memory)
 Factor Ops : 1.358e+07 (less than 1 second per iteration)
 Threads    : 35

                  Objective                Residual
Iter       Primal          Dual         Primal    Dual     Compl     Time
   0   9.08002689e+06 -1.24998084e+09  1.51e+01 3.08e+03  5.01e+04     1s
   1   2.14540430e+06 -4.72200381e+08  3.27e+00 1.98e-08  1.02e+04     1s
   2   6.19344988e+05 -3.77431258e+08  6.99e-01 1.60e-08  4.62e+03     1s
   3   3.68416533e+05 -6.49885112e+07  2.35e-01 2.89e-09  7.68e+02     1s
   4   2.35776507e+05 -1.24201600e+07  1.42e-02 5.40e-10  1.20e+02     1s
   5   1.67141795e+05 -3.21820781e+06  1.65e-03 1.31e-10  3.14e+01     1s
   6   1.03265367e+05 -8.10340036e+05  5.04e-04 3.64e-11  8.46e+00     1s
   7   4.65960046e+04 -2.25096413e+05  1.69e-04 1.22e-11  2.51e+00     1s
   8   1.73166195e+04 -7.27767423e+04  4.05e-05 7.28e-12  8.33e-01     1s
   9   1.25246253e+04 -2.10536036e+04  2.58e-05 7.28e-12  3.10e-01     1s
  10   6.97519894e+03 -6.30883095e+03  1.17e-05 3.64e-12  1.23e-01     1s
  11   4.70585185e+03 -1.67921816e+03  7.06e-06 3.64e-12  5.90e-02     1s
  12   3.24972192e+03 -4.71472248e+02  4.12e-06 1.46e-11  3.44e-02     1s
  13   2.56749078e+03  1.48916246e+02  2.79e-06 7.28e-12  2.24e-02     1s
  14   2.06653104e+03  4.90967735e+02  1.85e-06 7.28e-12  1.46e-02     1s
  15   1.67112674e+03  6.96027024e+02  1.11e-06 3.64e-12  9.02e-03     1s
  16   1.38551107e+03  8.52556035e+02  5.99e-07 7.28e-12  4.93e-03     1s
  17   1.26557723e+03  9.91246321e+02  3.77e-07 1.46e-11  2.54e-03     1s
  18   1.17945186e+03  1.02370289e+03  2.25e-07 7.28e-12  1.44e-03     1s
  19   1.13642521e+03  1.03479329e+03  1.48e-07 7.28e-12  9.40e-04     1s
  20   1.10975705e+03  1.04166846e+03  1.00e-07 7.28e-12  6.30e-04     1s
  21   1.07725184e+03  1.04564110e+03  4.22e-08 7.28e-12  2.92e-04     1s
  22   1.06652396e+03  1.04818939e+03  2.31e-08 7.28e-12  1.70e-04     1s
  23   1.06015463e+03  1.05119978e+03  1.19e-08 7.28e-12  8.28e-05     1s
  24   1.05631372e+03  1.05163385e+03  5.38e-09 7.28e-12  4.33e-05     1s
  25   1.05483236e+03  1.05258236e+03  2.90e-09 7.28e-12  2.08e-05     1s
  26   1.05356685e+03  1.05286182e+03  8.30e-10 7.28e-12  6.52e-06     1s
  27   1.05330504e+03  1.05297732e+03  2.07e-09 7.28e-12  3.03e-06     1s
  28   1.05313136e+03  1.05299876e+03  8.05e-09 1.46e-11  1.23e-06     1s
  29   1.05306553e+03  1.05301146e+03  6.15e-09 7.28e-12  5.00e-07     1s
  30   1.05303897e+03  1.05301859e+03  2.72e-09 7.28e-12  1.88e-07     1s
  31   1.05302740e+03  1.05302645e+03  2.07e-09 7.28e-12  8.81e-09     1s
  32   1.05302689e+03  1.05302685e+03  1.93e-09 7.28e-12  3.56e-10     2s
  33   1.05302689e+03  1.05302688e+03  1.32e-09 7.28e-12  5.08e-11     2s

Barrier solved model in 33 iterations and 1.53 seconds (1.37 work units)
Optimal objective 1.05302689e+03


Root relaxation: objective 1.053027e+03, 2878 iterations, 1.54 seconds (1.16 work units)

    Nodes    |    Current Node    |     Objective Bounds      |     Work
 Expl Unexpl |  Obj  Depth IntInf | Incumbent    BestBd   Gap | It/Node Time

     0     0 1053.02689    0   23          - 1053.02689      -     -    2s
H    0     0                    6120.1120720 1053.02689  82.8%     -    4s
H    0     0                    2463.7001268 1053.02689  57.3%     -    6s
     0     0 1075.48974    0   22 2463.70013 1075.48974  56.3%     -    9s
H    0     0                    1257.9007275 1075.48974  14.5%     -   10s
     0     0 1075.48974    0   21 1257.90073 1075.48974  14.5%     -   10s
     0     0 1076.38907    0   21 1257.90073 1076.38907  14.4%     -   11s
     0     0 1076.39612    0   21 1257.90073 1076.39612  14.4%     -   12s
     0     0 1076.39625    0   21 1257.90073 1076.39625  14.4%     -   12s
     0     0 1078.44295    0   21 1257.90073 1078.44295  14.3%     -   14s
H    0     0                    1253.5747936 1078.44295  14.0%     -   15s
     0     0 1088.47331    0   21 1253.57479 1088.47331  13.2%     -   15s
     0     0 1090.74866    0   20 1253.57479 1090.74866  13.0%     -   17s
     0     0 1090.74866    0   20 1253.57479 1090.74866  13.0%     -   17s
     0     0 1090.74866    0   20 1253.57479 1090.74866  13.0%     -   17s
     0     0 1090.74866    0   20 1253.57479 1090.74866  13.0%     -   19s
H    0     0                    1215.5151829 1090.74866  10.3%     -  244s
     0     2 1090.74866    0   20 1215.51518 1090.74866  10.3%     -  246s
     3     8 1131.17193    2   17 1215.51518 1100.68828  9.45%  1988  251s
     7    16 1208.82867    3   18 1215.51518 1113.79301  8.37%  1932  255s
    31    36 1132.12074    5   17 1215.51518 1127.02949  7.28%  1295  266s
    57    58 1142.16300    6   16 1215.51518 1132.20447  6.85%  1411  272s
    93    74 1157.48915    7   15 1215.51518 1142.21573  6.03%  1425  275s
   165    92 1166.78029    9   13 1215.51518 1148.12231  5.54%  1021  283s
   201    93 1171.54841   10   13 1215.51518 1148.12231  5.54%  1012  286s
   242   104 1181.32127   11   12 1215.51518 1148.12231  5.54%   924  291s
   327   116     cutoff   13      1215.51518 1148.12231  5.54%   831  298s
   377   102 1184.60005   12   11 1215.51518 1148.12231  5.54%   795  304s
   442   106 1208.89317   14    7 1215.51518 1148.12231  5.54%   777  313s
   509    80     cutoff   15      1215.51518 1148.12231  5.54%   764  321s
   587    56 1214.99160   16    6 1215.51518 1148.12231  5.54%   729  329s
   657    63 infeasible   17      1215.51518 1154.52376  5.02%   725  337s
   718    51     cutoff    9      1215.51518 1154.52376  5.02%   722  342s
   799    45 1184.19983   10   13 1215.51518 1154.52376  5.02%   673  407s
   855    42 1201.06342   11    9 1215.51518 1154.52376  5.02%   652  411s
   929    27     cutoff   12      1215.51518 1165.51618  4.11%   627  418s
  1002    16     cutoff   14      1215.51518 1185.46129  2.47%   613  422s

Cutting planes:
  Gomory: 2
  Implied bound: 229
  MIR: 463
  RLT: 1

Explored 1033 nodes (635873 simplex iterations) in 422.68 seconds (481.37 work units)
Thread count was 36 (of 36 available processors)

Solution count 5: 1215.52 1253.57 1257.9 ... 6120.11

Optimal solution found (tolerance 1.00e-02)
Best objective 1.215515182868e+03, best bound 1.208124526228e+03, gap 0.6080%

Gurobi 11.0.0 (linux64) logging started Thu Sep 19 18:21:39 2024

Set parameter LogFile to value "/lustre1/scratch/348/vsc34888/JointResearch/05.Models/06.Benchmarking/L.Cont_Investments_per_hour/IEEE118_mod1_ByStages_nc80/openStarNet_IEEE118_mod1_ByStages_nc80.log"
Set parameter Method to value 2
Set parameter MIPFocus to value 1
Set parameter Presolve to value 2
Set parameter RINS to value 100
Set parameter MIPGap to value 0.01
Set parameter Threads to value 36
Set parameter TimeLimit to value 259200
Set parameter IterationLimit to value 760000000
Gurobi Optimizer version 11.0.0 build v11.0.0rc2 (linux64 - "Rocky Linux 8.9 (Green Obsidian)")

CPU model: Intel(R) Xeon(R) Gold 6240 CPU @ 2.60GHz, instruction set [SSE2|AVX|AVX2|AVX512]
Thread count: 36 physical cores, 36 logical processors, using up to 36 threads

Optimize a model with 113683 rows, 83762 columns and 281414 nonzeros
Model fingerprint: 0x6b9f7518
Coefficient statistics:
  Matrix range     [5e-04, 9e+03]
  Objective range  [1e+00, 1e+00]
  Bounds range     [1e-04, 3e+00]
  RHS range        [2e-04, 3e+02]
Presolve removed 85078 rows and 37045 columns
Presolve time: 0.16s
Presolved: 28605 rows, 46882 columns, 112521 nonzeros

Ordering time: 0.01s

Barrier statistics:
 AA' NZ     : 9.536e+04
 Factor NZ  : 3.785e+05 (roughly 33 MB of memory)
 Factor Ops : 5.514e+06 (less than 1 second per iteration)
 Threads    : 36

                  Objective                Residual
Iter       Primal          Dual         Primal    Dual     Compl     Time
   0   1.44549610e+07 -6.66300457e+08  9.02e+01 1.10e+02  2.51e+04     0s
   1   1.65784706e+06 -1.95222427e+08  8.93e+00 2.44e-12  3.30e+03     0s
   2   4.08109116e+05 -3.26857120e+07  1.26e+00 2.57e-12  4.44e+02     0s
   3   1.93232016e+05 -4.54592370e+06  3.43e-02 2.03e-12  4.76e+01     0s
   4   9.38999830e+04 -7.57182133e+05  5.15e-03 2.27e-12  8.34e+00     0s
   5   3.78246781e+04 -2.04942375e+05  1.43e-03 1.36e-12  2.37e+00     0s
   6   1.55108923e+04 -5.54246982e+04  3.86e-04 4.55e-13  6.92e-01     0s
   7   9.81907765e+03 -2.01963507e+04  1.99e-04 4.55e-13  2.93e-01     0s
   8   5.69176703e+03 -7.08316543e+03  8.40e-05 4.55e-13  1.25e-01     0s
   9   3.72663460e+03 -2.17108433e+03  4.18e-05 6.82e-13  5.75e-02     0s
  10   2.87766972e+03 -7.46014319e+02  2.68e-05 4.55e-13  3.53e-02     0s
  11   2.09416777e+03  2.07110327e+02  1.33e-05 4.55e-13  1.84e-02     0s
  12   1.79621721e+03  6.39425837e+02  8.61e-06 4.55e-13  1.13e-02     0s
  13   1.46789130e+03  9.70040013e+02  3.54e-06 4.55e-13  4.86e-03     0s
  14   1.40330556e+03  1.05709546e+03  2.59e-06 4.55e-13  3.38e-03     0s
  15   1.31899470e+03  1.12710496e+03  1.38e-06 4.55e-13  1.87e-03     0s
  16   1.29375041e+03  1.16236762e+03  1.04e-06 4.55e-13  1.28e-03     0s
  17   1.25196628e+03  1.18772314e+03  4.75e-07 4.55e-13  6.27e-04     0s
  18   1.22781751e+03  1.20298100e+03  1.53e-07 4.55e-13  2.42e-04     0s
  19   1.22024039e+03  1.20844627e+03  5.64e-08 9.09e-13  1.15e-04     0s
  20   1.21676859e+03  1.21308091e+03  1.27e-08 4.55e-13  3.60e-05     0s
  21   1.21578636e+03  1.21532919e+03  2.40e-09 4.55e-13  4.46e-06     1s
  22   1.21555327e+03  1.21550623e+03  2.99e-10 9.09e-13  4.59e-07     1s
  23   1.21551877e+03  1.21551470e+03  5.35e-11 6.82e-13  3.97e-08     1s
  24   1.21551519e+03  1.21551518e+03  4.92e-11 4.55e-13  1.05e-10     1s
  25   1.21551518e+03  1.21551518e+03  3.14e-12 3.41e-13  9.17e-16     1s

Barrier solved model in 25 iterations and 0.57 seconds (0.50 work units)
Optimal objective 1.21551518e+03

Crossover log...

    8334 DPushes remaining with DInf 0.0000000e+00                 1s
       0 DPushes remaining with DInf 0.0000000e+00                 1s

     356 PPushes remaining with PInf 0.0000000e+00                 1s
       0 PPushes remaining with PInf 0.0000000e+00                 1s

  Push phase complete: Pinf 0.0000000e+00, Dinf 2.7888089e-12      1s

Iteration    Objective       Primal Inf.    Dual Inf.      Time
    2140    1.2155152e+03   0.000000e+00   0.000000e+00      1s

Solved in 2140 iterations and 0.79 seconds (0.60 work units)
Optimal objective  1.215515183e+03

Gurobi 11.0.0 (linux64) logging started Sun Sep 22 10:47:06 2024

Set parameter LogFile to value "/lustre1/scratch/348/vsc34888/JointResearch/05.Models/06.Benchmarking/L.Cont_Investments_per_hour/IEEE118_mod1_ByStages_nc80/openStarNet_IEEE118_mod1_ByStages_nc80.log"
Set parameter Method to value 2
Set parameter MIPFocus to value 1
Set parameter Presolve to value 2
Set parameter RINS to value 100
Set parameter MIPGap to value 0.01
Set parameter Threads to value 36
Set parameter TimeLimit to value 259200
Set parameter IterationLimit to value 760000000
Gurobi Optimizer version 11.0.0 build v11.0.0rc2 (linux64 - "Rocky Linux 8.9 (Green Obsidian)")

CPU model: Intel(R) Xeon(R) Gold 6240 CPU @ 2.60GHz, instruction set [SSE2|AVX|AVX2|AVX512]
Thread count: 36 physical cores, 36 logical processors, using up to 36 threads

Optimize a model with 113683 rows, 83762 columns and 281414 nonzeros
Model fingerprint: 0xe87376d3
Coefficient statistics:
  Matrix range     [5e-04, 9e+03]
  Objective range  [1e+00, 1e+00]
  Bounds range     [1e-04, 3e+00]
  RHS range        [2e-04, 3e+00]
Presolve removed 86169 rows and 39335 columns
Presolve time: 0.15s
Presolved: 27514 rows, 45690 columns, 109047 nonzeros

Ordering time: 0.01s

Barrier statistics:
 AA' NZ     : 9.548e+04
 Factor NZ  : 3.696e+05 (roughly 30 MB of memory)
 Factor Ops : 5.563e+06 (less than 1 second per iteration)
 Threads    : 36

                  Objective                Residual
Iter       Primal          Dual         Primal    Dual     Compl     Time
   0   1.72329435e+07 -5.98822070e+08  1.15e+02 1.01e+02  3.10e+04     0s
   1   1.65176049e+06 -2.09363397e+08  9.38e+00 2.54e-12  3.71e+03     0s
   2   4.55497658e+05 -3.95413328e+07  1.45e+00 2.60e-12  5.58e+02     0s
   3   2.23237912e+05 -6.11674733e+06  5.26e-02 2.79e-12  6.58e+01     0s
   4   1.43275306e+05 -9.14597683e+05  8.44e-03 1.50e-11  1.06e+01     0s
   5   8.51540417e+04 -2.80049372e+05  3.91e-03 4.32e-12  3.66e+00     0s
   6   5.15217526e+04 -1.11201257e+05  1.98e-03 1.76e-12  1.63e+00     0s
   7   3.82804120e+04 -4.36086695e+04  1.29e-03 8.53e-13  8.19e-01     0s
   8   3.26260624e+04 -2.15246297e+04  1.00e-03 4.97e-13  5.41e-01     0s
   9   2.36530228e+04 -3.77982998e+03  5.64e-04 4.55e-13  2.74e-01     0s
  10   2.05011367e+04  1.04643325e+03  4.16e-04 4.55e-13  1.94e-01     0s
  11   1.67980431e+04  5.96675522e+03  2.48e-04 4.55e-13  1.08e-01     0s
  12   1.40505347e+04  8.52537873e+03  1.28e-04 4.55e-13  5.52e-02     0s
  13   1.27353092e+04  9.59532235e+03  7.26e-05 4.55e-13  3.14e-02     0s
  14   1.22479805e+04  1.01103116e+04  5.24e-05 4.55e-13  2.13e-02     0s
  15   1.17706865e+04  1.04196818e+04  3.30e-05 4.55e-13  1.35e-02     0s
  16   1.14520460e+04  1.05870882e+04  2.04e-05 4.55e-13  8.64e-03     0s
  17   1.12425581e+04  1.07390705e+04  1.22e-05 4.55e-13  5.03e-03     0s
  18   1.11117815e+04  1.08314653e+04  7.27e-06 4.55e-13  2.80e-03     0s
  19   1.10273327e+04  1.08674599e+04  4.07e-06 4.55e-13  1.60e-03     0s
  20   1.09649564e+04  1.08901430e+04  1.72e-06 4.55e-13  7.47e-04     0s
  21   1.09406487e+04  1.09048176e+04  8.43e-07 4.55e-13  3.58e-04     0s
  22   1.09256348e+04  1.09120110e+04  3.09e-07 4.55e-13  1.36e-04     0s
  23   1.09169447e+04  1.09158408e+04  1.30e-08 4.55e-13  1.10e-05     0s
  24   1.09165126e+04  1.09163705e+04  6.31e-10 4.55e-13  1.42e-06     0s
  25   1.09164860e+04  1.09164701e+04  1.87e-10 4.55e-13  1.59e-07     0s
  26   1.09164824e+04  1.09164794e+04  1.85e-10 4.55e-13  3.01e-08     1s
  27   1.09164820e+04  1.09164819e+04  1.29e-10 6.82e-13  1.29e-09     1s
  28   1.09164820e+04  1.09164820e+04  3.92e-11 4.55e-13  2.06e-11     1s

Barrier solved model in 28 iterations and 0.53 seconds (0.52 work units)
Optimal objective 1.09164820e+04

Crossover log...

    8048 DPushes remaining with DInf 0.0000000e+00                 1s
       0 DPushes remaining with DInf 0.0000000e+00                 1s

     635 PPushes remaining with PInf 0.0000000e+00                 1s
       0 PPushes remaining with PInf 0.0000000e+00                 1s

  Push phase complete: Pinf 0.0000000e+00, Dinf 2.3506016e-11      1s

Iteration    Objective       Primal Inf.    Dual Inf.      Time
    2767    1.0916482e+04   0.000000e+00   0.000000e+00      1s

Solved in 2767 iterations and 0.75 seconds (0.62 work units)
Optimal objective  1.091648198e+04

Gurobi 11.0.0 (linux64) logging started Sun Sep 22 10:47:20 2024

Set parameter LogFile to value "/lustre1/scratch/348/vsc34888/JointResearch/05.Models/06.Benchmarking/L.Cont_Investments_per_hour/IEEE118_mod1_ByStages_nc80/openStarNet_IEEE118_mod1_ByStages_nc80.log"
Set parameter Method to value 2
Set parameter MIPFocus to value 1
Set parameter Presolve to value 2
Set parameter RINS to value 100
Set parameter MIPGap to value 0.01
Set parameter Threads to value 36
Set parameter TimeLimit to value 259200
Set parameter IterationLimit to value 760000000
Gurobi Optimizer version 11.0.0 build v11.0.0rc2 (linux64 - "Rocky Linux 8.9 (Green Obsidian)")

CPU model: Intel(R) Xeon(R) Gold 6240 CPU @ 2.60GHz, instruction set [SSE2|AVX|AVX2|AVX512]
Thread count: 36 physical cores, 36 logical processors, using up to 36 threads

Optimize a model with 113683 rows, 83762 columns and 281414 nonzeros
Model fingerprint: 0xe87376d3
Coefficient statistics:
  Matrix range     [5e-04, 9e+03]
  Objective range  [1e+00, 1e+00]
  Bounds range     [1e-04, 3e+00]
  RHS range        [2e-04, 3e+00]
Presolve removed 86169 rows and 39335 columns
Presolve time: 0.16s
Presolved: 27514 rows, 45690 columns, 109047 nonzeros

Ordering time: 0.01s

Barrier statistics:
 AA' NZ     : 9.548e+04
 Factor NZ  : 3.696e+05 (roughly 30 MB of memory)
 Factor Ops : 5.563e+06 (less than 1 second per iteration)
 Threads    : 36

                  Objective                Residual
Iter       Primal          Dual         Primal    Dual     Compl     Time
   0   1.72329435e+07 -5.98822070e+08  1.15e+02 1.01e+02  3.10e+04     0s
   1   1.65176049e+06 -2.09363397e+08  9.38e+00 2.54e-12  3.71e+03     0s
   2   4.55497658e+05 -3.95413328e+07  1.45e+00 2.60e-12  5.58e+02     0s
   3   2.23237912e+05 -6.11674733e+06  5.26e-02 2.79e-12  6.58e+01     0s
   4   1.43275306e+05 -9.14597683e+05  8.44e-03 1.50e-11  1.06e+01     0s
   5   8.51540417e+04 -2.80049372e+05  3.91e-03 4.32e-12  3.66e+00     0s
   6   5.15217526e+04 -1.11201257e+05  1.98e-03 1.76e-12  1.63e+00     0s
   7   3.82804120e+04 -4.36086695e+04  1.29e-03 8.53e-13  8.19e-01     0s
   8   3.26260624e+04 -2.15246297e+04  1.00e-03 4.97e-13  5.41e-01     0s
   9   2.36530228e+04 -3.77982998e+03  5.64e-04 4.55e-13  2.74e-01     0s
  10   2.05011367e+04  1.04643325e+03  4.16e-04 4.55e-13  1.94e-01     0s
  11   1.67980431e+04  5.96675522e+03  2.48e-04 4.55e-13  1.08e-01     0s
  12   1.40505347e+04  8.52537873e+03  1.28e-04 4.55e-13  5.52e-02     0s
  13   1.27353092e+04  9.59532235e+03  7.26e-05 4.55e-13  3.14e-02     0s
  14   1.22479805e+04  1.01103116e+04  5.24e-05 4.55e-13  2.13e-02     0s
  15   1.17706865e+04  1.04196818e+04  3.30e-05 4.55e-13  1.35e-02     0s
  16   1.14520460e+04  1.05870882e+04  2.04e-05 4.55e-13  8.64e-03     0s
  17   1.12425581e+04  1.07390705e+04  1.22e-05 4.55e-13  5.03e-03     0s
  18   1.11117815e+04  1.08314653e+04  7.27e-06 4.55e-13  2.80e-03     0s
  19   1.10273327e+04  1.08674599e+04  4.07e-06 4.55e-13  1.60e-03     0s
  20   1.09649564e+04  1.08901430e+04  1.72e-06 4.55e-13  7.47e-04     0s
  21   1.09406487e+04  1.09048176e+04  8.43e-07 4.55e-13  3.58e-04     0s
  22   1.09256348e+04  1.09120110e+04  3.09e-07 4.55e-13  1.36e-04     0s
  23   1.09169447e+04  1.09158408e+04  1.30e-08 4.55e-13  1.10e-05     0s
  24   1.09165126e+04  1.09163705e+04  6.31e-10 4.55e-13  1.42e-06     0s
  25   1.09164860e+04  1.09164701e+04  1.87e-10 4.55e-13  1.59e-07     0s
  26   1.09164824e+04  1.09164794e+04  1.85e-10 4.55e-13  3.01e-08     1s
  27   1.09164820e+04  1.09164819e+04  1.29e-10 6.82e-13  1.29e-09     1s
  28   1.09164820e+04  1.09164820e+04  3.92e-11 4.55e-13  2.06e-11     1s

Barrier solved model in 28 iterations and 0.53 seconds (0.52 work units)
Optimal objective 1.09164820e+04

Crossover log...

    8048 DPushes remaining with DInf 0.0000000e+00                 1s
       0 DPushes remaining with DInf 0.0000000e+00                 1s

     635 PPushes remaining with PInf 0.0000000e+00                 1s
       0 PPushes remaining with PInf 0.0000000e+00                 1s

  Push phase complete: Pinf 0.0000000e+00, Dinf 2.3506016e-11      1s

Iteration    Objective       Primal Inf.    Dual Inf.      Time
    2767    1.0916482e+04   0.000000e+00   0.000000e+00      1s

Solved in 2767 iterations and 0.75 seconds (0.62 work units)
Optimal objective  1.091648198e+04

Gurobi 11.0.0 (linux64) logging started Tue Oct 29 12:56:26 2024

Set parameter LogFile to value "/lustre1/scratch/348/vsc34888/JointResearch/05.Models/06.Benchmarking/L.Cont_Investments_per_hour/IEEE118_mod1_ByStages_nc80/openStarNet_IEEE118_mod1_ByStages_nc80.log"
Set parameter Method to value 2
Set parameter MIPFocus to value 1
Set parameter Presolve to value 2
Set parameter RINS to value 100
Set parameter MIPGap to value 0.01
Set parameter Threads to value 36
Set parameter TimeLimit to value 259200
Set parameter IterationLimit to value 760000000
Gurobi Optimizer version 11.0.0 build v11.0.0rc2 (linux64 - "Rocky Linux 8.9 (Green Obsidian)")

CPU model: Intel(R) Xeon(R) Gold 6240 CPU @ 2.60GHz, instruction set [SSE2|AVX|AVX2|AVX512]
Thread count: 36 physical cores, 36 logical processors, using up to 36 threads

Optimize a model with 113683 rows, 83851 columns and 292438 nonzeros
Model fingerprint: 0xce95acba
Variable types: 83817 continuous, 34 integer (34 binary)
Coefficient statistics:
  Matrix range     [5e-04, 9e+03]
  Objective range  [1e+00, 1e+00]
  Bounds range     [1e-04, 3e+00]
  RHS range        [2e-04, 3e+00]
Presolve removed 76909 rows and 38637 columns
Presolve time: 0.41s
Presolved: 36774 rows, 45214 columns, 134588 nonzeros
Variable types: 45180 continuous, 34 integer (34 binary)
Root relaxation presolved: 36774 rows, 45214 columns, 134588 nonzeros

Root barrier log...

Ordering time: 0.02s

Barrier statistics:
 Dense cols : 34
 AA' NZ     : 1.665e+05
 Factor NZ  : 6.503e+05 (roughly 40 MB of memory)
 Factor Ops : 1.367e+07 (less than 1 second per iteration)
 Threads    : 35

                  Objective                Residual
Iter       Primal          Dual         Primal    Dual     Compl     Time
   0   8.92316684e+06 -1.63641048e+09  1.57e+01 3.14e+03  6.71e+04     1s
   1   2.15237829e+06 -6.31536888e+08  3.45e+00 3.43e-08  1.39e+04     1s
   2   6.16172704e+05 -5.05699440e+08  7.07e-01 2.48e-08  6.16e+03     1s
   3   3.75054973e+05 -8.71674737e+07  2.46e-01 7.90e-09  1.03e+03     1s
   4   2.46082050e+05 -1.41310908e+07  1.65e-02 5.39e-10  1.38e+02     1s
   5   2.03038260e+05 -3.93765913e+06  4.18e-03 1.35e-10  3.85e+01     1s
   6   1.33052287e+05 -1.03682882e+06  1.60e-03 5.17e-10  1.08e+01     1s
   7   7.30553971e+04 -2.62278325e+05  7.11e-04 1.84e-10  3.10e+00     1s
   8   3.23951247e+04 -7.35125384e+04  2.71e-04 6.00e-11  9.77e-01     1s
   9   1.37042915e+04 -2.19952208e+04  9.10e-05 1.64e-11  3.29e-01     1s
  10   5.61904866e+03 -4.29234482e+03  2.52e-05 3.64e-12  9.14e-02     1s
  11   3.96351096e+03 -1.08083763e+03  1.56e-05 7.28e-12  4.65e-02     1s
  12   2.83246277e+03 -2.41836304e+02  9.17e-06 1.46e-11  2.83e-02     1s
  13   2.24291437e+03  3.04391140e+02  5.96e-06 3.64e-12  1.79e-02     1s
  14   1.77919980e+03  6.25934090e+02  3.49e-06 7.28e-12  1.06e-02     1s
  15   1.51864295e+03  7.84150921e+02  2.13e-06 7.28e-12  6.77e-03     1s
  16   1.35241791e+03  9.37684818e+02  1.28e-06 7.28e-12  3.82e-03     1s
  17   1.22210255e+03  1.01863337e+03  6.18e-07 3.64e-12  1.88e-03     1s
  18   1.16055569e+03  1.05061298e+03  3.14e-07 7.28e-12  1.01e-03     1s
  19   1.13513976e+03  1.06660906e+03  1.91e-07 7.28e-12  6.32e-04     1s
  20   1.11878495e+03  1.07847094e+03  1.12e-07 9.89e-12  3.72e-04     1s
  21   1.10684820e+03  1.08542705e+03  5.59e-08 8.91e-12  1.97e-04     1s
  22   1.10105537e+03  1.08907857e+03  2.85e-08 7.28e-12  1.10e-04     1s
  23   1.09799605e+03  1.09245425e+03  1.45e-08 7.76e-12  5.11e-05     1s
  24   1.09598969e+03  1.09382818e+03  5.73e-09 7.28e-12  1.99e-05     1s
  25   1.09498076e+03  1.09442748e+03  3.13e-09 7.28e-12  5.10e-06     1s
  26   1.09473430e+03  1.09458488e+03  2.58e-09 1.09e-11  1.38e-06     1s
  27   1.09463057e+03  1.09461360e+03  8.79e-09 7.28e-12  1.56e-07     1s
  28   1.09462687e+03  1.09462006e+03  4.29e-09 3.64e-12  6.28e-08     1s
  29   1.09462450e+03  1.09462227e+03  8.95e-09 3.64e-12  2.06e-08     1s
  30   1.09462389e+03  1.09462359e+03  1.26e-09 7.28e-12  2.75e-09     1s
  31   1.09462377e+03  1.09462377e+03  1.74e-09 2.18e-11  9.70e-12     1s

Barrier solved model in 31 iterations and 1.34 seconds (1.31 work units)
Optimal objective 1.09462377e+03


Root relaxation: objective 1.094624e+03, 2882 iterations, 1.32 seconds (1.11 work units)

    Nodes    |    Current Node    |     Objective Bounds      |     Work
 Expl Unexpl |  Obj  Depth IntInf | Incumbent    BestBd   Gap | It/Node Time

     0     0 1094.62377    0   24          - 1094.62377      -     -    2s
H    0     0                    6371.5672494 1094.62377  82.8%     -    4s
H    0     0                    2888.5568682 1094.62377  62.1%     -    5s
     0     0 1116.84254    0   23 2888.55687 1116.84254  61.3%     -    9s
H    0     0                    1290.8541650 1116.84254  13.5%     -   10s
     0     0 1116.84254    0   23 1290.85417 1116.84254  13.5%     -   10s
     0     0 1116.84254    0   23 1290.85417 1116.84254  13.5%     -   10s
     0     0 1116.84254    0   23 1290.85417 1116.84254  13.5%     -   10s
     0     0 1118.87171    0   22 1290.85417 1118.87171  13.3%     -   11s
H    0     0                    1286.2642635 1118.87171  13.0%     -   13s
     0     0 1118.87171    0   22 1286.26426 1118.87171  13.0%     -   13s
     0     0 1118.87171    0   22 1286.26426 1118.87171  13.0%     -   13s
     0     0 1118.87171    0   22 1286.26426 1118.87171  13.0%     -   15s
     0     0 1118.87171    0   22 1286.26426 1118.87171  13.0%     -   16s
     0     0 1118.87171    0   22 1286.26426 1118.87171  13.0%     -   16s
     0     0 1118.87171    0   22 1286.26426 1118.87171  13.0%     -   17s
     0     0 1118.87171    0   22 1286.26426 1118.87171  13.0%     -   18s
     0     0 1137.05472    0   22 1286.26426 1137.05472  11.6%     -   19s
H    0     0                    1252.9287428 1137.05472  9.25%     -  265s
     0     2 1137.05472    0   22 1252.92874 1137.05472  9.25%     -  266s
     3     8 1159.33972    2   19 1252.92874 1139.61911  9.04%  1805  272s
     7    16 1241.25369    3   20 1252.92874 1151.91227  8.06%  2179  275s
    15    22     cutoff    4      1252.92874 1158.63306  7.53%  1616  280s
    53    48 1186.86011    6   16 1252.92874 1174.80710  6.24%  1535  289s
    89    66     cutoff    7      1252.92874 1178.31572  5.96%  1521  299s
   125    86 1212.43878    8   16 1252.92874 1185.31527  5.40%  1493  304s
   161   106 1221.67111    9   15 1252.92874 1185.62445  5.37%  1414  312s
   197   123 1228.63928   10   14 1252.92874 1185.62445  5.37%  1318  321s
   298   127 1240.47451   12   12 1252.92874 1185.62445  5.37%  1203  330s
   347   130 1249.62773   13   11 1252.92874 1185.62445  5.37%  1141  340s
   403   117     cutoff   14      1252.92874 1185.62445  5.37%  1104  346s
   475   119     cutoff   14      1252.92874 1189.43593  5.07%  1028  353s
   544   128 1224.94902    9   15 1252.92874 1195.35223  4.60%   978  357s
   727   108 1237.85613   11   13 1252.92874 1195.35223  4.60%   816  363s
   824   117     cutoff   10      1252.92874 1195.35223  4.60%   777  368s
   908    81 1230.83503    9   15 1252.92874 1195.35223  4.60%   742  372s
*  970    81              21    1251.1368850 1195.35223  4.46%   715  372s
   999    82 1238.56109   10   14 1251.13689 1195.35223  4.46%   697  425s
  1070    73     cutoff   11      1251.13689 1195.35223  4.46%   703  430s
  1155    54 1242.79970   10   14 1251.13689 1195.35223  4.46%   693  439s
  1263    22 infeasible   11      1251.13689 1195.35223  4.46%   682  443s
  1332    31 1236.85302    9   13 1251.13689 1195.35223  4.46%   665  447s
  1419     8 1242.95260    9   14 1251.13689 1209.26433  3.35%   649  451s
  1429     6     cutoff   10      1251.13689 1215.94470  2.81%   649  458s
  1455     5 1246.79216   12   12 1251.13689 1238.43230  1.02%   652  460s

Cutting planes:
  Gomory: 1
  Implied bound: 154
  MIR: 459
  Flow cover: 2
  RLT: 2

Explored 1464 nodes (959195 simplex iterations) in 460.83 seconds (551.00 work units)
Thread count was 36 (of 36 available processors)

Solution count 6: 1251.14 1252.93 1286.26 ... 6371.57

Optimal solution found (tolerance 1.00e-02)
Best objective 1.251136885004e+03, best bound 1.241492890439e+03, gap 0.7708%

Gurobi 11.0.0 (linux64) logging started Tue Oct 29 13:04:19 2024

Set parameter LogFile to value "/lustre1/scratch/348/vsc34888/JointResearch/05.Models/06.Benchmarking/L.Cont_Investments_per_hour/IEEE118_mod1_ByStages_nc80/openStarNet_IEEE118_mod1_ByStages_nc80.log"
Set parameter Method to value 2
Set parameter MIPFocus to value 1
Set parameter Presolve to value 2
Set parameter RINS to value 100
Set parameter MIPGap to value 0.01
Set parameter Threads to value 36
Set parameter TimeLimit to value 259200
Set parameter IterationLimit to value 760000000
Gurobi Optimizer version 11.0.0 build v11.0.0rc2 (linux64 - "Rocky Linux 8.9 (Green Obsidian)")

CPU model: Intel(R) Xeon(R) Gold 6240 CPU @ 2.60GHz, instruction set [SSE2|AVX|AVX2|AVX512]
Thread count: 36 physical cores, 36 logical processors, using up to 36 threads

Optimize a model with 113683 rows, 83817 columns and 281524 nonzeros
Model fingerprint: 0xa8578ce2
Coefficient statistics:
  Matrix range     [5e-04, 9e+03]
  Objective range  [1e+00, 1e+00]
  Bounds range     [1e-04, 3e+00]
  RHS range        [2e-04, 3e+02]
Presolve removed 84925 rows and 36940 columns
Presolve time: 0.15s
Presolved: 28758 rows, 47117 columns, 113854 nonzeros

Ordering time: 0.01s

Barrier statistics:
 AA' NZ     : 9.838e+04
 Factor NZ  : 3.873e+05 (roughly 34 MB of memory)
 Factor Ops : 5.744e+06 (less than 1 second per iteration)
 Threads    : 36

                  Objective                Residual
Iter       Primal          Dual         Primal    Dual     Compl     Time
   0   1.53919051e+07 -9.97494940e+08  9.86e+01 1.65e+02  3.94e+04     0s
   1   1.85870032e+06 -2.85319947e+08  1.03e+01 3.59e-12  5.13e+03     0s
   2   4.24354015e+05 -5.48392915e+07  1.34e+00 3.23e-12  7.34e+02     0s
   3   2.19872871e+05 -6.53154740e+06  5.78e-02 2.75e-12  6.89e+01     0s
   4   1.21247344e+05 -1.00098368e+06  6.34e-04 4.77e-11  1.09e+01     0s
   5   5.53941571e+04 -2.54303377e+05  2.12e-04 1.09e-11  3.01e+00     0s
   6   2.17724164e+04 -6.34753236e+04  6.57e-05 2.61e-12  8.28e-01     0s
   7   9.84686379e+03 -2.07488953e+04  2.07e-05 8.81e-13  2.97e-01     0s
   8   6.82901553e+03 -8.50070200e+03  1.18e-05 4.55e-13  1.49e-01     0s
   9   3.98879549e+03 -3.02673769e+03  5.14e-06 4.55e-13  6.81e-02     0s
  10   2.84780124e+03 -9.56978328e+02  2.82e-06 4.55e-13  3.69e-02     0s
  11   2.16231022e+03  2.14928458e+02  1.52e-06 4.55e-13  1.89e-02     0s
  12   1.77006277e+03  8.71107670e+02  8.32e-07 9.09e-13  8.73e-03     0s
  13   1.49693410e+03  1.04728346e+03  3.81e-07 4.55e-13  4.36e-03     0s
  14   1.40159164e+03  1.11716974e+03  2.29e-07 4.55e-13  2.76e-03     0s
  15   1.32877580e+03  1.16700365e+03  1.15e-07 4.55e-13  1.57e-03     0s
  16   1.29429560e+03  1.19847099e+03  6.21e-08 4.55e-13  9.30e-04     0s
  17   1.27019003e+03  1.22295051e+03  2.65e-08 4.55e-13  4.59e-04     0s
  18   1.26023509e+03  1.23758302e+03  1.26e-08 9.09e-13  2.20e-04     0s
  19   1.25528046e+03  1.24553211e+03  5.57e-09 4.55e-13  9.46e-05     0s
  20   1.25253060e+03  1.24909354e+03  1.81e-09 4.55e-13  3.34e-05     0s
  21   1.25135293e+03  1.25082955e+03  2.15e-10 6.82e-13  5.08e-06     0s
  22   1.25115435e+03  1.25112142e+03  6.27e-11 4.55e-13  3.20e-07     0s
  23   1.25113850e+03  1.25113436e+03  3.32e-10 9.09e-13  4.03e-08     0s
  24   1.25113689e+03  1.25113687e+03  1.74e-10 4.55e-13  1.59e-10     1s
  25   1.25113689e+03  1.25113689e+03  3.08e-11 4.55e-13  5.72e-16     1s

Barrier solved model in 25 iterations and 0.52 seconds (0.50 work units)
Optimal objective 1.25113689e+03

Crossover log...

    8338 DPushes remaining with DInf 0.0000000e+00                 1s
       0 DPushes remaining with DInf 0.0000000e+00                 1s

     296 PPushes remaining with PInf 0.0000000e+00                 1s
       0 PPushes remaining with PInf 0.0000000e+00                 1s

  Push phase complete: Pinf 0.0000000e+00, Dinf 2.7936478e-12      1s

Iteration    Objective       Primal Inf.    Dual Inf.      Time
    2264    1.2511369e+03   0.000000e+00   0.000000e+00      1s

Solved in 2264 iterations and 0.75 seconds (0.61 work units)
Optimal objective  1.251136885e+03
